p cnf 7230 17
-2768 -3360 -3756 0
-2766 -3358 -3754 0
-2764 -3356 -3752 0
2768 -3757 0
2766 -3755 0
2764 -3753 0
3756 3757 0
3754 3755 0
3752 3753 0
3360 -3757 0
3358 -3755 0
3356 -3753 0
-2770 -3362 3759 0
3750 3751 0
-3750 -3751 0
3362 -3759 0
2770 -3759 0
